p cnf 50 25
-34 -38 30 0
39 37 -6 0
37 -28 -8 0
-21 -28 -38 0
-44 -31 -20 0
25 -26 24 0
44 -27 7 0
12 -37 -47 0
-36 18 -15 0
-48 -43 -20 0
11 43 36 0
-5 -6 -26 0
11 -47 36 0
-47 43 35 0
-8 -5 37 0
-14 31 -44 0
-45 -16 -47 0
18 39 -8 0
45 3 36 0
-42 -35 48 0
-20 -3 -24 0
-16 -50 49 0
-39 -6 -14 0
35 -18 34 0
-34 -18 -39 0
